%chk=NCCONCCOCCCNCCOCCCNCCOCCNCCNNCCONCCOCCCNCCOCOCNCCOCOCNCCOCCCNCCOCO_1.chk
%nproc=56
%mem=3gb
#p pm6 pop=npa nosymm 

Atom number=15

3   1
n    -6.81504710   -0.66800846    1.60707692
c    -5.71395960    0.00197406    2.37297994
c    -4.35694786   -0.67296486    2.58790345
o    -4.21191508   -1.87003167    2.49193003
n    -3.38098282    0.12500810    2.95297630
c    -2.06207636   -0.38995780    3.27400382
c    -1.63603337    0.17496614    4.60006046
o    -1.74407640    1.35600127    4.86200687
n    -1.09496908   -0.70006429    5.41501647
c    -0.57193141   -0.31105889    6.66900251
c    -0.99298926   -0.04495971    2.19692643
c     0.39000815   -0.48793565    2.64002984
c    -1.37801133   -0.66198214    0.89708837
h     0.42347757   -0.69386669    6.75571554
h    -1.15901926   -0.73214842    7.45824992


