%chk=NCCONCCOCCCNCCOCCCNCCOCCNCCNNCCONCCOCCCNCCOCOCNCCOCOCNCCOCCCNCCOCO_2.chk
%nproc=56
%mem=3gb
#p pm6 pop=npa nosymm 

Atom number=21

5   1
c    -4.35694786   -0.67296486    2.58790345
o    -4.21191508   -1.87003167    2.49193003
n    -3.38098282    0.12500810    2.95297630
c    -2.06207636   -0.38995780    3.27400382
c    -1.63603337    0.17496614    4.60006046
o    -1.74407640    1.35600127    4.86200687
n    -1.09496908   -0.70006429    5.41501647
c    -0.57193141   -0.31105889    6.66900251
c    -0.99298926   -0.04495971    2.19692643
c     0.39000815   -0.48793565    2.64002984
c     0.84008780   -0.85408390    6.79200770
o     1.02699976   -2.02199415    6.72004467
n     1.81009405    0.00199386    7.02302595
c     3.19101893   -0.42899749    7.10100079
c    -1.41104123   -0.91291151    7.79705388
c    -0.72711441   -0.64498396    9.12305887
c    -2.79999317   -0.34903322    7.78902279
h    -5.30550012   -0.20118203    2.43767175
h    -1.26957896   -0.48821235    1.26315706
h     3.70312098    0.05974561    7.90336085
h     3.66075126   -0.20378316    6.16637250


